NAME : Min27-5-f.216409.tour
COMMENT : Length = 216409
COMMENT : Found by LKH-3 [Keld Helsgaun] Tue Dec 17 14:06:59 2024
TYPE : TOUR
DIMENSION : 37
TOUR_SECTION
1
33
2
20
19
18
17
25
24
23
26
27
28
30
29
21
22
9
11
10
34
3
8
13
12
7
6
16
14
15
35
4
31
32
36
5
37
-1
EOF
